NAME: n400q10B.tsp, 400 nodes, semilla 111
COMMENT: Problema aleatorio de norma euclidea
DIMENSION: 400
CAPACITY: 10
EDGE_WEIGHT_TYPE: EUC_2D
NODE_COORD_SECTION
1   0.0000   0.0000
2 -355.0000 -98.0000
3 -243.0000 -186.0000
4 181.0000 394.0000
5 -229.0000 -332.0000
6  37.0000 -270.0000
7 -277.0000 -295.0000
8 416.0000 459.0000
9 -362.0000 -232.0000
10 -398.0000 355.0000
11 -21.0000  99.0000
12  72.0000 -354.0000
13 -405.0000 -366.0000
14 -67.0000 489.0000
15 302.0000 -433.0000
16 -239.0000 333.0000
17 -259.0000 372.0000
18  92.0000 -410.0000
19 -200.0000 367.0000
20 405.0000 -75.0000
21 329.0000 -292.0000
22 132.0000 -486.0000
23 -264.0000 355.0000
24 422.0000 -330.0000
25 -120.0000 212.0000
26 474.0000 176.0000
27 161.0000 -24.0000
28   7.0000 334.0000
29 391.0000 -318.0000
30 321.0000 -145.0000
31 164.0000 -482.0000
32 -420.0000 279.0000
33 178.0000 -207.0000
34 -232.0000  50.0000
35  68.0000 -166.0000
36 -122.0000 -284.0000
37 -267.0000 -242.0000
38 169.0000 -23.0000
39 264.0000 250.0000
40 440.0000 -480.0000
41 -471.0000 -147.0000
42 371.0000 -387.0000
43 140.0000 251.0000
44 356.0000 439.0000
45 310.0000 -38.0000
46 345.0000 -145.0000
47 -200.0000 -186.0000
48 -57.0000 -437.0000
49 -461.0000  -8.0000
50 -463.0000  58.0000
51  24.0000 -489.0000
52 145.0000 497.0000
53 495.0000 149.0000
54 461.0000  77.0000
55 -197.0000 -123.0000
56 -58.0000  17.0000
57 307.0000 235.0000
58 -219.0000 234.0000
59 100.0000  29.0000
60 -289.0000 -95.0000
61 -66.0000 -272.0000
62 -213.0000 394.0000
63 276.0000 -401.0000
64 217.0000 -205.0000
65 -464.0000 -105.0000
66 438.0000 -258.0000
67 -266.0000 310.0000
68 -227.0000 -270.0000
69 -425.0000 -402.0000
70 496.0000 127.0000
71 -319.0000 500.0000
72 -345.0000 -327.0000
73 -387.0000 -98.0000
74 295.0000 263.0000
75 -478.0000 -43.0000
76 -153.0000 -284.0000
77  64.0000 -297.0000
78  72.0000 -42.0000
79 415.0000 -441.0000
80 259.0000 -147.0000
81  25.0000 129.0000
82 383.0000 118.0000
83 165.0000 384.0000
84 355.0000 -384.0000
85 381.0000 -173.0000
86 -136.0000 327.0000
87 290.0000   0.0000
88 -437.0000 432.0000
89 -169.0000  23.0000
90 146.0000 -28.0000
91 252.0000 227.0000
92 405.0000 288.0000
93 252.0000 -236.0000
94 263.0000 -309.0000
95 -55.0000 -304.0000
96 -52.0000 -414.0000
97 -386.0000 171.0000
98 -307.0000 -447.0000
99 -492.0000 -35.0000
100 -262.0000 323.0000
101 -231.0000 -357.0000
102 104.0000 228.0000
103 -377.0000 264.0000
104 211.0000 277.0000
105  25.0000 -307.0000
106 -258.0000 -408.0000
107 435.0000 -121.0000
108 -24.0000  76.0000
109 -270.0000 489.0000
110 297.0000 323.0000
111 122.0000 321.0000
112 -43.0000 -190.0000
113 -105.0000 271.0000
114  96.0000 305.0000
115 -139.0000 -173.0000
116 -437.0000  59.0000
117 116.0000  86.0000
118 -146.0000 -496.0000
119 -266.0000 -275.0000
120 399.0000 -71.0000
121 -221.0000   9.0000
122 361.0000 -132.0000
123 352.0000 194.0000
124 481.0000 273.0000
125 411.0000 -387.0000
126 285.0000 468.0000
127 -198.0000 291.0000
128 446.0000 381.0000
129 140.0000 300.0000
130 423.0000 212.0000
131 -81.0000  60.0000
132 494.0000   0.0000
133 -60.0000 -107.0000
134 -301.0000 -287.0000
135 -183.0000 -339.0000
136 414.0000  76.0000
137 -411.0000 154.0000
138 -306.0000 272.0000
139 -423.0000 299.0000
140  95.0000 271.0000
141 -43.0000 336.0000
142 -484.0000  95.0000
143 -23.0000 237.0000
144 -98.0000 122.0000
145  69.0000  59.0000
146 -13.0000 235.0000
147 -326.0000 -169.0000
148 218.0000  57.0000
149 -485.0000 191.0000
150 -442.0000 232.0000
151 358.0000 -102.0000
152 -127.0000 446.0000
153 400.0000 312.0000
154 -165.0000 -212.0000
155 -480.0000  98.0000
156 483.0000 -498.0000
157 250.0000 251.0000
158 381.0000  61.0000
159 167.0000 407.0000
160 301.0000 362.0000
161 386.0000 -422.0000
162 -333.0000 -11.0000
163 -282.0000  85.0000
164 -88.0000 -352.0000
165 -441.0000 -196.0000
166 -168.0000 -371.0000
167 -321.0000  35.0000
168 -353.0000 199.0000
169 -94.0000  59.0000
170 -479.0000 360.0000
171 -45.0000 112.0000
172 -131.0000 366.0000
173 -152.0000 -355.0000
174 -319.0000 -429.0000
175 -276.0000  57.0000
176 -124.0000 397.0000
177  12.0000 -485.0000
178 -480.0000 444.0000
179 476.0000 -460.0000
180  79.0000 155.0000
181 242.0000 253.0000
182 488.0000 288.0000
183 -302.0000 -15.0000
184 -135.0000 -465.0000
185 252.0000 -100.0000
186 127.0000 211.0000
187 492.0000 -436.0000
188 268.0000 -234.0000
189 297.0000 -266.0000
190 -376.0000 188.0000
191 -96.0000 -476.0000
192 419.0000  27.0000
193 313.0000 454.0000
194 -454.0000 382.0000
195 202.0000 -466.0000
196 -288.0000   3.0000
197 -286.0000 -319.0000
198 439.0000 -56.0000
199 169.0000 -493.0000
200 447.0000 -379.0000
201  31.0000 -198.0000
202 206.0000 -242.0000
203  34.0000 -170.0000
204 416.0000 344.0000
205 -412.0000 431.0000
206 -175.0000 126.0000
207 -277.0000 -313.0000
208 -23.0000 324.0000
209 106.0000 -23.0000
210 312.0000 -452.0000
211 -479.0000 179.0000
212 -406.0000 -185.0000
213 345.0000 464.0000
214   4.0000 -241.0000
215 443.0000 -399.0000
216 336.0000 130.0000
217 -183.0000 125.0000
218 181.0000 233.0000
219 -379.0000 -474.0000
220 -389.0000 242.0000
221 -304.0000  39.0000
222   5.0000 -45.0000
223 334.0000 202.0000
224 -377.0000 -208.0000
225 192.0000 -242.0000
226  98.0000 198.0000
227 353.0000 130.0000
228 -234.0000 -47.0000
229 414.0000 -325.0000
230 376.0000 -293.0000
231 -296.0000 -116.0000
232 -268.0000 470.0000
233 -132.0000 -74.0000
234 -115.0000 -476.0000
235 -412.0000 117.0000
236 170.0000 -427.0000
237 279.0000 326.0000
238 -405.0000 -175.0000
239 183.0000 342.0000
240 221.0000 -26.0000
241 -414.0000 469.0000
242 289.0000 316.0000
243 219.0000 123.0000
244 292.0000 -417.0000
245 -279.0000 241.0000
246 387.0000 -347.0000
247 432.0000 -21.0000
248 -139.0000 -215.0000
249 422.0000 188.0000
250 -443.0000 103.0000
251 -359.0000 -158.0000
252 -96.0000 -47.0000
253 208.0000 220.0000
254 364.0000 -455.0000
255 -145.0000 154.0000
256 122.0000 -81.0000
257 -249.0000 404.0000
258 213.0000 398.0000
259 237.0000 -330.0000
260 -205.0000 -230.0000
261 -254.0000 322.0000
262 -188.0000 349.0000
263  11.0000 -410.0000
264 -496.0000 -278.0000
265 169.0000 -177.0000
266 -458.0000 329.0000
267 315.0000 254.0000
268 -53.0000 -499.0000
269 -429.0000 114.0000
270 -209.0000  42.0000
271 463.0000 463.0000
272 470.0000 339.0000
273 -399.0000  93.0000
274 301.0000 -101.0000
275 -407.0000 364.0000
276 -148.0000 154.0000
277 185.0000 -226.0000
278 -237.0000 362.0000
279 353.0000 -35.0000
280 -64.0000 -333.0000
281 -220.0000 440.0000
282 -104.0000 -84.0000
283 442.0000 216.0000
284 -77.0000  74.0000
285 440.0000 255.0000
286 -307.0000 -170.0000
287 485.0000 171.0000
288 434.0000 290.0000
289 263.0000 223.0000
290 162.0000 -444.0000
291  69.0000 340.0000
292 -98.0000 -425.0000
293 -50.0000  78.0000
294  66.0000 -82.0000
295 -262.0000 -103.0000
296 451.0000 -494.0000
297 -393.0000 -194.0000
298 -454.0000 -306.0000
299  -9.0000 136.0000
300 -287.0000 497.0000
301 335.0000 -340.0000
302 -170.0000  75.0000
303   3.0000 264.0000
304 -26.0000 492.0000
305 -152.0000 -357.0000
306 -188.0000 297.0000
307 283.0000 278.0000
308 338.0000 -392.0000
309 401.0000 -55.0000
310 -122.0000 359.0000
311 -490.0000  25.0000
312 137.0000  96.0000
313 -15.0000 -383.0000
314 293.0000 152.0000
315  -8.0000 -266.0000
316 -475.0000 -368.0000
317 -312.0000 -32.0000
318  65.0000 -470.0000
319 160.0000 -267.0000
320 -463.0000 -296.0000
321 -82.0000 -104.0000
322 370.0000 -134.0000
323 -86.0000 170.0000
324 343.0000 103.0000
325 114.0000 480.0000
326 -158.0000 -386.0000
327 -387.0000  -2.0000
328 339.0000 -203.0000
329 468.0000 265.0000
330 -120.0000 -175.0000
331 310.0000 275.0000
332  54.0000 -225.0000
333 -13.0000 -485.0000
334 -26.0000  67.0000
335 -301.0000 -349.0000
336 364.0000 -113.0000
337 248.0000 454.0000
338 -100.0000 -105.0000
339 -455.0000  89.0000
340 -106.0000 -358.0000
341 -351.0000 250.0000
342 396.0000 267.0000
343 -408.0000 -458.0000
344 193.0000 473.0000
345 -481.0000 303.0000
346 156.0000 -325.0000
347 -359.0000 102.0000
348  20.0000  32.0000
349 328.0000 -435.0000
350 239.0000 446.0000
351 -338.0000 -367.0000
352 -282.0000 273.0000
353 294.0000 486.0000
354 -429.0000 135.0000
355 -246.0000 115.0000
356 222.0000 -222.0000
357 246.0000 215.0000
358 -308.0000 254.0000
359  53.0000 163.0000
360 322.0000 -277.0000
361 122.0000 -22.0000
362 -88.0000 244.0000
363 -182.0000 336.0000
364 169.0000 -295.0000
365 -136.0000 311.0000
366 177.0000 -453.0000
367 224.0000 375.0000
368 120.0000 -402.0000
369 264.0000 318.0000
370 263.0000 228.0000
371 -212.0000 174.0000
372 -416.0000 -201.0000
373 362.0000  31.0000
374 291.0000  94.0000
375 437.0000 213.0000
376 -322.0000 116.0000
377 -59.0000 467.0000
378  45.0000 -34.0000
379 -337.0000 407.0000
380 267.0000  68.0000
381 121.0000 -128.0000
382 287.0000 -167.0000
383 393.0000 350.0000
384 418.0000 -202.0000
385 -186.0000 441.0000
386 -41.0000 -140.0000
387 -345.0000 -260.0000
388 260.0000 -199.0000
389 -333.0000  51.0000
390  89.0000 500.0000
391  17.0000 -181.0000
392 -65.0000 260.0000
393 -375.0000 105.0000
394 394.0000 -377.0000
395 -326.0000 -171.0000
396 106.0000 -33.0000
397 149.0000 296.0000
398 -297.0000 425.0000
399 -295.0000 -428.0000
400 411.0000 -152.0000
DISPLAY_DATA_SECTION:
 1  250  250
 2   72  201
 3  128  157
 4  340  447
 5  135   84
 6  268  115
 7  111  102
 8  458  479
 9   69  134
10   51  427
11  239  299
12  286   73
13   47   67
14  216  494
15  401   33
16  130  416
17  120  436
18  296   45
19  150  433
20  452  212
21  414  104
22  316    7
23  118  427
24  461   85
25  190  356
26  487  338
27  330  238
28  253  417
29  445   91
30  410  177
31  332    9
32   40  389
33  339  146
34  134  275
35  284  167
36  189  108
37  116  129
38  334  238
39  382  375
40  470   10
41   14  176
42  435   56
43  320  375
44  428  469
45  405  231
46  422  177
47  150  157
48  221   31
49   19  246
50   18  279
51  262    5
52  322  498
53  497  324
54  480  288
55  151  188
56  221  258
57  403  367
58  140  367
59  300  264
60  105  202
61  217  114
62  143  447
63  388   49
64  358  147
65   18  197
66  469  121
67  117  405
68  136  115
69   37   49
70  498  313
71   90  500
72   77   86
73   56  201
74  397  381
75   11  228
76  173  108
77  282  101
78  286  229
79  457   29
80  379  176
81  262  314
82  441  309
83  332  442
84  427   58
85  440  163
86  182  413
87  395  250
88   31  466
89  165  261
90  323  236
91  376  363
92  452  394
93  376  132
94  381   95
95  222   98
96  224   43
97   57  335
98   96   26
99    4  232
100  119  411
101  134   71
102  302  364
103   61  382
104  355  388
105  262   96
106  121   46
107  467  189
108  238  288
109  115  494
110  398  411
111  311  410
112  228  155
113  197  385
114  298  402
115  180  163
116   31  279
117  308  293
118  177    2
119  117  112
120  449  214
121  139  254
122  430  184
123  426  347
124  490  386
125  455   56
126  392  484
127  151  395
128  473  440
129  320  400
130  461  356
131  209  280
132  497  250
133  220  196
134   99  106
135  158   80
136  457  288
137   44  327
138   97  386
139   38  399
140  297  385
141  228  418
142    8  297
143  238  368
144  201  311
145  284  279
146  243  367
147   87  165
148  359  278
149    7  345
150   29  366
151  429  199
152  186  473
153  450  406
154  167  144
155   10  299
156  491    1
157  375  375
158  440  280
159  333  453
160  400  431
161  443   39
162   83  244
163  109  292
164  206   74
165   29  152
166  166   64
167   89  267
168   73  349
169  203  279
170   10  430
171  227  306
172  184  433
173  174   72
174   90   35
175  112  278
176  188  448
177  256    7
178   10  472
179  488   20
180  289  327
181  371  376
182  494  394
183   99  242
184  182   17
185  376  200
186  313  355
187  496   32
188  384  133
189  398  117
190   62  344
191  202   12
192  459  263
193  406  477
194   23  441
195  351   17
196  106  251
197  107   90
198  469  222
199  334    3
200  473   60
201  265  151
202  353  129
203  267  165
204  458  422
205   44  465
206  162  313
207  111   93
208  238  412
209  303  238
210  406   24
211   10  339
212   47  157
213  422  482
214  252  129
215  471   50
216  418  315
217  158  312
218  340  366
219   60   13
220   55  371
221   98  269
222  252  227
223  417  351
224   61  146
225  346  129
226  299  349
227  426  315
228  133  226
229  457   87
230  438  103
231  102  192
232  116  485
233  184  213
234  192   12
235   44  308
236  335   36
237  389  413
238   47  162
239  341  421
240  360  237
241   43  484
242  394  408
243  359  311
244  396   41
245  110  370
246  443   76
247  466  239
248  180  142
249  461  344
250   28  301
251   70  171
252  202  226
253  354  360
254  432   22
255  177  327
256  311  209
257  125  452
258  356  449
259  368   85
260  147  135
261  123  411
262  156  424
263  255   45
264    2  111
265  334  161
266   21  414
267  407  377
268  223    0
269   35  307
270  145  271
271  481  481
272  485  419
273   50  296
274  400  199
275   46  432
276  176  327
277  342  137
278  131  431
279  426  232
280  218   83
281  140  470
282  198  208
283  471  358
284  211  287
285  470  377
286   96  165
287  492  335
288  467  395
289  381  361
290  331   28
291  284  420
292  201   37
293  225  289
294  283  209
295  119  198
296  475    3
297   53  153
298   23   97
299  245  318
300  106  498
301  417   80
302  165  287
303  251  382
304  237  496
305  174   71
306  156  398
307  391  389
308  419   54
309  450  222
310  189  429
311    5  262
312  318  298
313  242   58
314  396  326
315  246  117
316   12   66
317   94  234
318  282   15
319  330  116
320   18  102
321  209  198
322  435  183
323  207  335
324  421  301
325  307  490
326  171   57
327   56  249
328  419  148
329  484  382
330  190  162
331  405  387
332  277  137
333  243    7
334  237  283
335   99   75
336  432  193
337  374  477
338  200  197
339   22  294
340  197   71
341   74  375
342  448  383
343   46   21
344  346  486
345    9  401
346  328   87
347   70  301
348  260  266
349  414   32
350  369  473
351   81   66
352  109  386
353  397  493
354   35  317
355  127  307
356  361  139
357  373  357
358   96  377
359  276  331
360  411  111
361  311  239
362  206  372
363  159  418
364  334  102
365  182  405
366  338   23
367  362  437
368  310   49
369  382  409
370  381  364
371  144  337
372   42  149
373  431  265
374  395  297
375  468  356
376   89  308
377  220  483
378  272  233
379   81  453
380  383  284
381  310  186
382  393  166
383  446  425
384  459  149
385  157  470
386  229  180
387   77  120
388  380  150
389   83  275
390  294  500
391  258  159
392  217  380
393   62  302
394  447   61
395   87  164
396  303  233
397  324  398
398  101  462
399  102   36
400  455  174
DEMAND_SECTION
1 -6
2 0
3 5
4 1
5 -7
6 3
7 7
8 5
9 5
10 -9
11 -2
12 -1
13 -8
14 1
15 5
16 8
17 -9
18 8
19 9
20 4
21 9
22 10
23 5
24 -2
25 -8
26 8
27 8
28 -5
29 -4
30 2
31 9
32 4
33 -7
34 9
35 1
36 -7
37 0
38 -4
39 2
40 6
41 -6
42 -3
43 6
44 2
45 2
46 2
47 -8
48 -5
49 0
50 4
51 -3
52 -2
53 0
54 -8
55 -1
56 -10
57 3
58 -6
59 -9
60 8
61 -9
62 8
63 2
64 0
65 7
66 -7
67 -4
68 -7
69 9
70 -5
71 2
72 -3
73 9
74 9
75 -2
76 -3
77 0
78 5
79 -9
80 0
81 -9
82 -8
83 9
84 8
85 -1
86 -5
87 -4
88 -7
89 7
90 5
91 -5
92 -10
93 7
94 7
95 -7
96 6
97 -9
98 -7
99 -6
100 3
101 4
102 9
103 -4
104 3
105 -6
106 6
107 4
108 1
109 0
110 -5
111 -6
112 8
113 5
114 -2
115 5
116 -3
117 -4
118 8
119 -3
120 -1
121 -9
122 -3
123 7
124 7
125 0
126 -9
127 6
128 2
129 3
130 8
131 5
132 -8
133 5
134 -7
135 -4
136 3
137 -8
138 -6
139 7
140 8
141 7
142 0
143 -7
144 2
145 -7
146 -4
147 -3
148 -8
149 3
150 1
151 -3
152 8
153 0
154 -9
155 -7
156 -4
157 -6
158 -10
159 7
160 -6
161 -8
162 8
163 -7
164 4
165 -10
166 -5
167 5
168 1
169 4
170 -6
171 -3
172 -6
173 -5
174 -7
175 3
176 -1
177 3
178 3
179 0
180 6
181 9
182 -4
183 4
184 10
185 -6
186 -7
187 9
188 4
189 0
190 0
191 -7
192 5
193 0
194 -10
195 -10
196 6
197 -8
198 0
199 -6
200 -6
201 9
202 6
203 0
204 -2
205 0
206 -3
207 -10
208 7
209 -5
210 4
211 -7
212 -4
213 -7
214 -1
215 7
216 -7
217 9
218 -6
219 -1
220 1
221 0
222 1
223 6
224 6
225 -5
226 0
227 8
228 -4
229 5
230 -4
231 -2
232 9
233 3
234 4
235 -6
236 4
237 -8
238 -7
239 7
240 -2
241 6
242 -8
243 -4
244 -6
245 -9
246 -3
247 4
248 0
249 -4
250 -10
251 1
252 7
253 -4
254 8
255 7
256 -5
257 8
258 -2
259 -9
260 1
261 10
262 -1
263 6
264 5
265 0
266 -5
267 3
268 -9
269 5
270 5
271 7
272 -1
273 -8
274 -9
275 0
276 3
277 0
278 4
279 4
280 -2
281 3
282 -9
283 2
284 -3
285 2
286 0
287 -9
288 -6
289 4
290 3
291 2
292 9
293 -4
294 -1
295 -2
296 -4
297 5
298 1
299 -2
300 -4
301 5
302 -6
303 5
304 0
305 -3
306 6
307 0
308 0
309 8
310 -8
311 0
312 -5
313 4
314 3
315 0
316 1
317 1
318 9
319 3
320 6
321 -1
322 -3
323 -3
324 -2
325 -1
326 0
327 9
328 5
329 -6
330 2
331 3
332 4
333 9
334 7
335 7
336 -5
337 -6
338 8
339 10
340 7
341 6
342 -5
343 2
344 7
345 4
346 6
347 0
348 -7
349 -10
350 -2
351 -8
352 6
353 1
354 -6
355 6
356 -3
357 3
358 -3
359 -1
360 4
361 0
362 -5
363 -7
364 -3
365 -4
366 4
367 5
368 -9
369 3
370 9
371 1
372 0
373 7
374 -3
375 -1
376 -10
377 -4
378 1
379 10
380 5
381 -3
382 -2
383 -6
384 -5
385 -3
386 -5
387 -2
388 0
389 8
390 2
391 1
392 0
393 10
394 2
395 -3
396 8
397 1
398 7
399 -1
400 -7
EOF